
Gurobi 9.1.2 (linux64) logging started Tue Nov 23 17:21:47 2021

Changed value of parameter LogFile to lemke_square_v-1.log-s20-l10.log
   Prev:   Default: 
Changed value of parameter Threads to 32
   Prev: 0  Min: 0  Max: 1024  Default: 0

Gurobi 9.1.2 (linux64) logging started Tue Nov 23 17:23:10 2021

Changed value of parameter LogFile to lemke_square_v-1.log-s20-l10.log
   Prev:   Default: 
Changed value of parameter Threads to 32
   Prev: 0  Min: 0  Max: 1024  Default: 0

Gurobi 9.1.2 (linux64) logging started Tue Nov 23 17:23:45 2021

Changed value of parameter LogFile to lemke_square_v-1.log-s20-l10.log
   Prev:   Default: 
Changed value of parameter Threads to 32
   Prev: 0  Min: 0  Max: 1024  Default: 0

Gurobi 9.1.2 (linux64) logging started Tue Nov 23 17:30:56 2021

Changed value of parameter LogFile to lemke_square_v-1.log-s20-l10.log
   Prev:   Default: 
Changed value of parameter Threads to 32
   Prev: 0  Min: 0  Max: 1024  Default: 0

Gurobi 9.1.2 (linux64) logging started Tue Nov 23 17:35:42 2021

Changed value of parameter LogFile to lemke_square_v-1.log-s20-l10.log
   Prev:   Default: 
Changed value of parameter Threads to 32
   Prev: 0  Min: 0  Max: 1024  Default: 0

Gurobi 9.1.2 (linux64) logging started Tue Nov 23 17:36:29 2021

Changed value of parameter LogFile to lemke_square_v-1.log-s20-l10.log
   Prev:   Default: 
Changed value of parameter Threads to 32
   Prev: 0  Min: 0  Max: 1024  Default: 0

Gurobi 9.1.2 (linux64) logging started Tue Nov 23 17:38:04 2021

Changed value of parameter LogFile to lemke_square_v-1.log-s20-l10.log
   Prev:   Default: 
Changed value of parameter Threads to 32
   Prev: 0  Min: 0  Max: 1024  Default: 0

Gurobi 9.1.2 (linux64) logging started Tue Nov 23 17:41:02 2021

Changed value of parameter LogFile to lemke_square_v-1.log-s20-l10.log
   Prev:   Default: 
Changed value of parameter Threads to 32
   Prev: 0  Min: 0  Max: 1024  Default: 0

Gurobi 9.1.2 (linux64) logging started Tue Nov 23 17:41:44 2021

Changed value of parameter LogFile to lemke_square_v-1.log-s20-l10.log
   Prev:   Default: 
Changed value of parameter Threads to 32
   Prev: 0  Min: 0  Max: 1024  Default: 0

Gurobi 9.1.2 (linux64) logging started Tue Nov 23 17:42:11 2021

Changed value of parameter LogFile to lemke_square_v-1.log-s20-l10.log
   Prev:   Default: 
Changed value of parameter Threads to 32
   Prev: 0  Min: 0  Max: 1024  Default: 0

Gurobi 9.1.2 (linux64) logging started Tue Nov 23 17:42:27 2021

Changed value of parameter LogFile to lemke_square_v-1.log-s20-l10.log
   Prev:   Default: 
Changed value of parameter Threads to 32
   Prev: 0  Min: 0  Max: 1024  Default: 0

Gurobi 9.1.2 (linux64) logging started Tue Nov 23 17:43:49 2021

Changed value of parameter LogFile to lemke_square_v-1.log-s20-l10.log
   Prev:   Default: 
Changed value of parameter Threads to 32
   Prev: 0  Min: 0  Max: 1024  Default: 0

Gurobi 9.1.2 (linux64) logging started Tue Nov 23 17:44:52 2021

Changed value of parameter LogFile to lemke_square_v-1.log-s20-l10.log
   Prev:   Default: 
Changed value of parameter Threads to 32
   Prev: 0  Min: 0  Max: 1024  Default: 0

Gurobi 9.1.2 (linux64) logging started Tue Nov 23 17:51:30 2021

Changed value of parameter LogFile to lemke_square_v-1.log-s20-l10.log
   Prev:   Default: 
Changed value of parameter Threads to 32
   Prev: 0  Min: 0  Max: 1024  Default: 0

Gurobi 9.1.2 (linux64) logging started Tue Nov 23 17:53:10 2021

Changed value of parameter LogFile to lemke_square_v-1.log-s20-l10.log
   Prev:   Default: 
Changed value of parameter Threads to 32
   Prev: 0  Min: 0  Max: 1024  Default: 0

Gurobi 9.1.2 (linux64) logging started Tue Nov 23 17:54:45 2021

Changed value of parameter LogFile to lemke_square_v-1.log-s20-l10.log
   Prev:   Default: 
Changed value of parameter Threads to 32
   Prev: 0  Min: 0  Max: 1024  Default: 0

Gurobi 9.1.2 (linux64) logging started Tue Nov 23 17:57:15 2021

Changed value of parameter LogFile to lemke_square_v-1.log-s20-l10.log
   Prev:   Default: 
Changed value of parameter Threads to 32
   Prev: 0  Min: 0  Max: 1024  Default: 0

Gurobi 9.1.2 (linux64) logging started Wed Nov 24 10:04:28 2021

Changed value of parameter LogFile to lemke_square_v-1.log-s20-l10.log
   Prev:   Default: 
Changed value of parameter Threads to 32
   Prev: 0  Min: 0  Max: 1024  Default: 0

Gurobi 9.1.2 (linux64) logging started Wed Nov 24 10:05:37 2021

Changed value of parameter LogFile to lemke_square_v-1.log-s20-l10.log
   Prev:   Default: 
Changed value of parameter Threads to 32
   Prev: 0  Min: 0  Max: 1024  Default: 0

Gurobi 9.1.2 (linux64) logging started Wed Nov 24 10:06:50 2021

Changed value of parameter LogFile to lemke_square_v-1.log-s20-l10.log
   Prev:   Default: 
Changed value of parameter Threads to 32
   Prev: 0  Min: 0  Max: 1024  Default: 0

Gurobi 9.1.2 (linux64) logging started Wed Nov 24 10:07:20 2021

Changed value of parameter LogFile to lemke_square_v-1.log-s20-l10.log
   Prev:   Default: 
Changed value of parameter Threads to 32
   Prev: 0  Min: 0  Max: 1024  Default: 0
